row=7;
column=7;
Board=[|3,2,1,6,5,4,7|7,5,3,1,4,6,2|2,4,6,5,3,7,1|4,7,5,2,6,1,3|1,3,7,4,2,5,6|5,6,2,7,1,3,4|6,1,4,3,7,2,5|];
horizontal=[|1,1,0,1,1,0|1,1,1,0,0,1|0,0,1,1,0,1|0,1,1,0,1,0|0,0,1,1,0,0|0,1,0,1,0,0|1,0,1,0,1,0|];
vertical=[|-1,0,0,1,1,0,1|1,1,0,0,1,0,1|0,0,1,1,0,1,0|1,1,0,0,1,0,0|0,0,1,0,1,1,1|0,1,0,1,0,1,0|];
